; solver scope 0
(declare-const tmp (_ BitVec 8))
(assert (let ((tmp_0 ((_ extract 0 0) tmp)))
        (let ((tmp_1 ((_ extract 2 2) tmp)))
        (let ((tmp_2 (bvand tmp_0 tmp_1)))
        (let ((tmp_3 ((_ extract 1 1) tmp)))
        (let ((tmp_4 (bvand tmp_3 tmp_2)))
        (let ((tmp_5 (bvxor tmp_4 #b1)))
        (let ((tmp_6 (bvxor tmp_2 #b1)))
        (let ((tmp_7 (bvxor tmp_3 #b1)))
        (let ((tmp_8 (bvand tmp_7 tmp_6)))
        (let ((tmp_9 (bvxor tmp_8 #b1)))
        (let ((tmp_10 (bvand tmp_9 tmp_5)))
        (let ((tmp_11 (bvand tmp_2 tmp_10)))
        (let ((tmp_12 (bvxor tmp_11 #b1)))
        (let ((tmp_13 (bvxor tmp_10 #b1)))
        (let ((tmp_14 (bvand tmp_6 tmp_13)))
        (let ((tmp_15 (bvxor tmp_14 #b1)))
        (let ((tmp_16 (bvand tmp_15 tmp_12)))
        (let ((tmp_17 (bvxor tmp_16 #b1)))
        (let ((tmp_18 (bvand tmp_0 tmp_3)))
        (let ((tmp_19 (bvxor tmp_18 #b1)))
        (let ((tmp_20 (bvand tmp_19 tmp_17)))
        (let ((tmp_21 (bvxor tmp_20 #b1)))
        (let ((tmp_22 (bvand tmp_18 tmp_16)))
        (let ((tmp_23 (bvxor tmp_22 #b1)))
        (let ((tmp_24 (bvand tmp_23 tmp_21)))
        (let ((tmp_25 (bvand tmp_3 tmp_1)))
        (let ((tmp_26 ((_ extract 3 3) tmp)))
        (let ((tmp_27 (bvand tmp_0 tmp_26)))
        (let ((tmp_28 (bvand tmp_27 tmp_25)))
        (let ((tmp_29 (bvxor tmp_28 #b1)))
        (let ((tmp_30 (bvxor tmp_25 #b1)))
        (let ((tmp_31 (bvxor tmp_27 #b1)))
        (let ((tmp_32 (bvand tmp_31 tmp_30)))
        (let ((tmp_33 (bvxor tmp_32 #b1)))
        (let ((tmp_34 (bvand tmp_33 tmp_29)))
        (let ((tmp_35 (bvand tmp_27 tmp_34)))
        (let ((tmp_36 (bvxor tmp_35 #b1)))
        (let ((tmp_37 (bvxor tmp_34 #b1)))
        (let ((tmp_38 (bvand tmp_31 tmp_37)))
        (let ((tmp_39 (bvxor tmp_38 #b1)))
        (let ((tmp_40 (bvand tmp_39 tmp_36)))
        (let ((tmp_41 (bvand tmp_25 tmp_40)))
        (let ((tmp_42 (bvxor tmp_41 #b1)))
        (let ((tmp_43 (bvxor tmp_40 #b1)))
        (let ((tmp_44 (bvand tmp_30 tmp_43)))
        (let ((tmp_45 (bvxor tmp_44 #b1)))
        (let ((tmp_46 (bvand tmp_45 tmp_42)))
        (let ((tmp_47 (bvand tmp_5 tmp_12)))
        (let ((tmp_48 (bvxor tmp_47 #b1)))
        (let ((tmp_49 (bvand tmp_48 tmp_46)))
        (let ((tmp_50 (bvxor tmp_49 #b1)))
        (let ((tmp_51 (bvxor tmp_46 #b1)))
        (let ((tmp_52 (bvand tmp_47 tmp_51)))
        (let ((tmp_53 (bvxor tmp_52 #b1)))
        (let ((tmp_54 (bvand tmp_53 tmp_50)))
        (let ((tmp_55 (bvxor tmp_54 #b1)))
        (let ((tmp_56 (bvand tmp_55 tmp_23)))
        (let ((tmp_57 (bvxor tmp_56 #b1)))
        (let ((tmp_58 (bvand tmp_54 tmp_22)))
        (let ((tmp_59 (bvxor tmp_58 #b1)))
        (let ((tmp_60 (bvand tmp_59 tmp_57)))
        (let ((tmp_61 (bvand tmp_50 tmp_59)))
        (let ((tmp_62 (bvand tmp_3 tmp_26)))
        (let ((tmp_63 (bvand tmp_1 tmp_62)))
        (let ((tmp_64 (bvxor tmp_63 #b1)))
        (let ((tmp_65 (bvxor tmp_62 #b1)))
        (let ((tmp_66 (bvxor tmp_1 #b1)))
        (let ((tmp_67 (bvand tmp_66 tmp_65)))
        (let ((tmp_68 (bvxor tmp_67 #b1)))
        (let ((tmp_69 (bvand tmp_68 tmp_64)))
        (let ((tmp_70 ((_ extract 4 4) tmp)))
        (let ((tmp_71 (bvand tmp_0 tmp_70)))
        (let ((tmp_72 (bvand tmp_71 tmp_62)))
        (let ((tmp_73 (bvxor tmp_72 #b1)))
        (let ((tmp_74 (bvxor tmp_71 #b1)))
        (let ((tmp_75 (bvand tmp_74 tmp_65)))
        (let ((tmp_76 (bvxor tmp_75 #b1)))
        (let ((tmp_77 (bvand tmp_76 tmp_73)))
        (let ((tmp_78 (bvand tmp_71 tmp_77)))
        (let ((tmp_79 (bvxor tmp_78 #b1)))
        (let ((tmp_80 (bvxor tmp_77 #b1)))
        (let ((tmp_81 (bvand tmp_74 tmp_80)))
        (let ((tmp_82 (bvxor tmp_81 #b1)))
        (let ((tmp_83 (bvand tmp_82 tmp_79)))
        (let ((tmp_84 (bvand tmp_83 tmp_69)))
        (let ((tmp_85 (bvxor tmp_84 #b1)))
        (let ((tmp_86 (bvxor tmp_69 #b1)))
        (let ((tmp_87 (bvxor tmp_83 #b1)))
        (let ((tmp_88 (bvand tmp_87 tmp_86)))
        (let ((tmp_89 (bvxor tmp_88 #b1)))
        (let ((tmp_90 (bvand tmp_89 tmp_85)))
        (let ((tmp_91 (bvand tmp_29 tmp_36)))
        (let ((tmp_92 (bvxor tmp_91 #b1)))
        (let ((tmp_93 (bvand tmp_92 tmp_90)))
        (let ((tmp_94 (bvxor tmp_93 #b1)))
        (let ((tmp_95 (bvxor tmp_90 #b1)))
        (let ((tmp_96 (bvand tmp_91 tmp_95)))
        (let ((tmp_97 (bvxor tmp_96 #b1)))
        (let ((tmp_98 (bvand tmp_97 tmp_94)))
        (let ((tmp_99 (bvand tmp_41 tmp_98)))
        (let ((tmp_100 (bvxor tmp_99 #b1)))
        (let ((tmp_101 (bvxor tmp_98 #b1)))
        (let ((tmp_102 (bvand tmp_42 tmp_101)))
        (let ((tmp_103 (bvxor tmp_102 #b1)))
        (let ((tmp_104 (bvand tmp_103 tmp_100)))
        (let ((tmp_105 (bvxor tmp_104 #b1)))
        (let ((tmp_106 (bvand tmp_105 tmp_61)))
        (let ((tmp_107 (bvxor tmp_106 #b1)))
        (let ((tmp_108 (bvxor tmp_61 #b1)))
        (let ((tmp_109 (bvand tmp_104 tmp_108)))
        (let ((tmp_110 (bvxor tmp_109 #b1)))
        (let ((tmp_111 (bvand tmp_110 tmp_107)))
        (let ((tmp_112 (bvand tmp_100 tmp_110)))
        (let ((tmp_113 (bvxor tmp_112 #b1)))
        (let ((tmp_114 (bvand tmp_3 tmp_70)))
        (let ((tmp_115 ((_ extract 5 5) tmp)))
        (let ((tmp_116 (bvand tmp_0 tmp_115)))
        (let ((tmp_117 (bvand tmp_116 tmp_114)))
        (let ((tmp_118 (bvxor tmp_117 #b1)))
        (let ((tmp_119 (bvxor tmp_114 #b1)))
        (let ((tmp_120 (bvxor tmp_116 #b1)))
        (let ((tmp_121 (bvand tmp_120 tmp_119)))
        (let ((tmp_122 (bvxor tmp_121 #b1)))
        (let ((tmp_123 (bvand tmp_122 tmp_118)))
        (let ((tmp_124 (bvand tmp_116 tmp_123)))
        (let ((tmp_125 (bvxor tmp_124 #b1)))
        (let ((tmp_126 (bvxor tmp_123 #b1)))
        (let ((tmp_127 (bvand tmp_120 tmp_126)))
        (let ((tmp_128 (bvxor tmp_127 #b1)))
        (let ((tmp_129 (bvand tmp_128 tmp_125)))
        (let ((tmp_130 (bvand tmp_114 tmp_129)))
        (let ((tmp_131 (bvxor tmp_130 #b1)))
        (let ((tmp_132 (bvxor tmp_129 #b1)))
        (let ((tmp_133 (bvand tmp_119 tmp_132)))
        (let ((tmp_134 (bvxor tmp_133 #b1)))
        (let ((tmp_135 (bvand tmp_134 tmp_131)))
        (let ((tmp_136 (bvand tmp_73 tmp_79)))
        (let ((tmp_137 (bvxor tmp_136 #b1)))
        (let ((tmp_138 (bvand tmp_137 tmp_135)))
        (let ((tmp_139 (bvxor tmp_138 #b1)))
        (let ((tmp_140 (bvxor tmp_135 #b1)))
        (let ((tmp_141 (bvand tmp_136 tmp_140)))
        (let ((tmp_142 (bvxor tmp_141 #b1)))
        (let ((tmp_143 (bvand tmp_142 tmp_139)))
        (let ((tmp_144 (bvand tmp_64 tmp_85)))
        (let ((tmp_145 (bvxor tmp_144 #b1)))
        (let ((tmp_146 (bvand tmp_145 tmp_143)))
        (let ((tmp_147 (bvxor tmp_146 #b1)))
        (let ((tmp_148 (bvxor tmp_143 #b1)))
        (let ((tmp_149 (bvand tmp_144 tmp_148)))
        (let ((tmp_150 (bvxor tmp_149 #b1)))
        (let ((tmp_151 (bvand tmp_150 tmp_147)))
        (let ((tmp_152 (bvand tmp_93 tmp_151)))
        (let ((tmp_153 (bvxor tmp_152 #b1)))
        (let ((tmp_154 (bvxor tmp_151 #b1)))
        (let ((tmp_155 (bvand tmp_94 tmp_154)))
        (let ((tmp_156 (bvxor tmp_155 #b1)))
        (let ((tmp_157 (bvand tmp_156 tmp_153)))
        (let ((tmp_158 (bvand tmp_157 tmp_113)))
        (let ((tmp_159 (bvxor tmp_158 #b1)))
        (let ((tmp_160 (bvxor tmp_157 #b1)))
        (let ((tmp_161 (bvand tmp_160 tmp_112)))
        (let ((tmp_162 (bvxor tmp_161 #b1)))
        (let ((tmp_163 (bvand tmp_162 tmp_159)))
        (let ((tmp_164 (bvand tmp_157 tmp_109)))
        (let ((tmp_165 (bvxor tmp_164 #b1)))
        (let ((tmp_166 (bvand tmp_99 tmp_157)))
        (let ((tmp_167 (bvxor tmp_166 #b1)))
        (let ((tmp_168 (bvand tmp_153 tmp_167)))
        (let ((tmp_169 (bvand tmp_168 tmp_165)))
        (let ((tmp_170 (bvxor tmp_169 #b1)))
        (let ((tmp_171 (bvand tmp_3 tmp_115)))
        (let ((tmp_172 ((_ extract 6 6) tmp)))
        (let ((tmp_173 (bvand tmp_0 tmp_172)))
        (let ((tmp_174 (bvand tmp_173 tmp_171)))
        (let ((tmp_175 (bvxor tmp_174 #b1)))
        (let ((tmp_176 (bvxor tmp_171 #b1)))
        (let ((tmp_177 (bvxor tmp_173 #b1)))
        (let ((tmp_178 (bvand tmp_177 tmp_176)))
        (let ((tmp_179 (bvxor tmp_178 #b1)))
        (let ((tmp_180 (bvand tmp_179 tmp_175)))
        (let ((tmp_181 (bvand tmp_173 tmp_180)))
        (let ((tmp_182 (bvxor tmp_181 #b1)))
        (let ((tmp_183 (bvxor tmp_180 #b1)))
        (let ((tmp_184 (bvand tmp_177 tmp_183)))
        (let ((tmp_185 (bvxor tmp_184 #b1)))
        (let ((tmp_186 (bvand tmp_185 tmp_182)))
        (let ((tmp_187 (bvand tmp_1 tmp_70)))
        (let ((tmp_188 (bvand tmp_187 tmp_186)))
        (let ((tmp_189 (bvxor tmp_188 #b1)))
        (let ((tmp_190 (bvxor tmp_186 #b1)))
        (let ((tmp_191 (bvxor tmp_187 #b1)))
        (let ((tmp_192 (bvand tmp_191 tmp_190)))
        (let ((tmp_193 (bvxor tmp_192 #b1)))
        (let ((tmp_194 (bvand tmp_193 tmp_189)))
        (let ((tmp_195 (bvand tmp_26 tmp_187)))
        (let ((tmp_196 (bvxor tmp_195 #b1)))
        (let ((tmp_197 (bvxor tmp_26 #b1)))
        (let ((tmp_198 (bvand tmp_197 tmp_191)))
        (let ((tmp_199 (bvxor tmp_198 #b1)))
        (let ((tmp_200 (bvand tmp_199 tmp_196)))
        (let ((tmp_201 (bvand tmp_171 tmp_200)))
        (let ((tmp_202 (bvxor tmp_201 #b1)))
        (let ((tmp_203 (bvxor tmp_200 #b1)))
        (let ((tmp_204 (bvand tmp_176 tmp_203)))
        (let ((tmp_205 (bvxor tmp_204 #b1)))
        (let ((tmp_206 (bvand tmp_205 tmp_202)))
        (let ((tmp_207 (bvand tmp_206 tmp_194)))
        (let ((tmp_208 (bvxor tmp_207 #b1)))
        (let ((tmp_209 (bvxor tmp_194 #b1)))
        (let ((tmp_210 (bvxor tmp_206 #b1)))
        (let ((tmp_211 (bvand tmp_210 tmp_209)))
        (let ((tmp_212 (bvxor tmp_211 #b1)))
        (let ((tmp_213 (bvand tmp_212 tmp_208)))
        (let ((tmp_214 (bvand tmp_118 tmp_125)))
        (let ((tmp_215 (bvxor tmp_214 #b1)))
        (let ((tmp_216 (bvand tmp_215 tmp_213)))
        (let ((tmp_217 (bvxor tmp_216 #b1)))
        (let ((tmp_218 (bvxor tmp_213 #b1)))
        (let ((tmp_219 (bvand tmp_214 tmp_218)))
        (let ((tmp_220 (bvxor tmp_219 #b1)))
        (let ((tmp_221 (bvand tmp_220 tmp_217)))
        (let ((tmp_222 (bvand tmp_1 tmp_26)))
        (let ((tmp_223 (bvand tmp_222 tmp_221)))
        (let ((tmp_224 (bvxor tmp_223 #b1)))
        (let ((tmp_225 (bvxor tmp_221 #b1)))
        (let ((tmp_226 (bvxor tmp_222 #b1)))
        (let ((tmp_227 (bvand tmp_226 tmp_225)))
        (let ((tmp_228 (bvxor tmp_227 #b1)))
        (let ((tmp_229 (bvand tmp_228 tmp_224)))
        (let ((tmp_230 (bvand tmp_131 tmp_139)))
        (let ((tmp_231 (bvxor tmp_230 #b1)))
        (let ((tmp_232 (bvand tmp_231 tmp_229)))
        (let ((tmp_233 (bvxor tmp_232 #b1)))
        (let ((tmp_234 (bvxor tmp_229 #b1)))
        (let ((tmp_235 (bvand tmp_230 tmp_234)))
        (let ((tmp_236 (bvxor tmp_235 #b1)))
        (let ((tmp_237 (bvand tmp_236 tmp_233)))
        (let ((tmp_238 (bvand tmp_146 tmp_237)))
        (let ((tmp_239 (bvxor tmp_238 #b1)))
        (let ((tmp_240 (bvxor tmp_237 #b1)))
        (let ((tmp_241 (bvand tmp_147 tmp_240)))
        (let ((tmp_242 (bvxor tmp_241 #b1)))
        (let ((tmp_243 (bvand tmp_242 tmp_239)))
        (let ((tmp_244 (bvand tmp_243 tmp_170)))
        (let ((tmp_245 (bvxor tmp_244 #b1)))
        (let ((tmp_246 (bvxor tmp_243 #b1)))
        (let ((tmp_247 (bvand tmp_246 tmp_169)))
        (let ((tmp_248 (bvxor tmp_247 #b1)))
        (let ((tmp_249 (bvand tmp_248 tmp_245)))
        (let ((tmp_250 (bvand tmp_243 tmp_164)))
        (let ((tmp_251 (bvxor tmp_250 #b1)))
        (let ((tmp_252 (bvand tmp_239 tmp_251)))
        (let ((tmp_253 (bvxor tmp_168 #b1)))
        (let ((tmp_254 (bvand tmp_243 tmp_253)))
        (let ((tmp_255 (bvxor tmp_254 #b1)))
        (let ((tmp_256 (bvand tmp_255 tmp_252)))
        (let ((tmp_257 (bvxor tmp_256 #b1)))
        (let ((tmp_258 (bvand tmp_1 tmp_115)))
        (let ((tmp_259 (bvand tmp_3 tmp_172)))
        (let ((tmp_260 (bvand tmp_259 tmp_258)))
        (let ((tmp_261 (bvxor tmp_260 #b1)))
        (let ((tmp_262 (bvxor tmp_258 #b1)))
        (let ((tmp_263 (bvxor tmp_259 #b1)))
        (let ((tmp_264 (bvand tmp_263 tmp_262)))
        (let ((tmp_265 (bvxor tmp_264 #b1)))
        (let ((tmp_266 (bvand tmp_265 tmp_261)))
        (let ((tmp_267 ((_ extract 7 7) tmp)))
        (let ((tmp_268 (bvand tmp_0 tmp_267)))
        (let ((tmp_269 (bvxor tmp_268 #b1)))
        (let ((tmp_270 (bvand tmp_269 tmp_266)))
        (let ((tmp_271 (bvxor tmp_270 #b1)))
        (let ((tmp_272 (bvxor tmp_266 #b1)))
        (let ((tmp_273 (bvand tmp_268 tmp_272)))
        (let ((tmp_274 (bvxor tmp_273 #b1)))
        (let ((tmp_275 (bvand tmp_274 tmp_271)))
        (let ((tmp_276 (bvand tmp_275 tmp_188)))
        (let ((tmp_277 (bvxor tmp_276 #b1)))
        (let ((tmp_278 (bvxor tmp_275 #b1)))
        (let ((tmp_279 (bvand tmp_278 tmp_189)))
        (let ((tmp_280 (bvxor tmp_279 #b1)))
        (let ((tmp_281 (bvand tmp_280 tmp_277)))
        (let ((tmp_282 (bvand tmp_175 tmp_182)))
        (let ((tmp_283 (bvxor tmp_282 #b1)))
        (let ((tmp_284 (bvand tmp_283 tmp_275)))
        (let ((tmp_285 (bvxor tmp_284 #b1)))
        (let ((tmp_286 (bvand tmp_282 tmp_278)))
        (let ((tmp_287 (bvxor tmp_286 #b1)))
        (let ((tmp_288 (bvand tmp_287 tmp_285)))
        (let ((tmp_289 (bvand tmp_288 tmp_281)))
        (let ((tmp_290 (bvxor tmp_289 #b1)))
        (let ((tmp_291 (bvxor tmp_281 #b1)))
        (let ((tmp_292 (bvxor tmp_288 #b1)))
        (let ((tmp_293 (bvand tmp_292 tmp_291)))
        (let ((tmp_294 (bvxor tmp_293 #b1)))
        (let ((tmp_295 (bvand tmp_294 tmp_290)))
        (let ((tmp_296 (bvand tmp_196 tmp_202)))
        (let ((tmp_297 (bvxor tmp_296 #b1)))
        (let ((tmp_298 (bvand tmp_297 tmp_295)))
        (let ((tmp_299 (bvxor tmp_298 #b1)))
        (let ((tmp_300 (bvxor tmp_295 #b1)))
        (let ((tmp_301 (bvand tmp_296 tmp_300)))
        (let ((tmp_302 (bvxor tmp_301 #b1)))
        (let ((tmp_303 (bvand tmp_302 tmp_299)))
        (let ((tmp_304 (bvand tmp_208 tmp_217)))
        (let ((tmp_305 (bvxor tmp_304 #b1)))
        (let ((tmp_306 (bvand tmp_305 tmp_303)))
        (let ((tmp_307 (bvxor tmp_306 #b1)))
        (let ((tmp_308 (bvxor tmp_303 #b1)))
        (let ((tmp_309 (bvand tmp_304 tmp_308)))
        (let ((tmp_310 (bvxor tmp_309 #b1)))
        (let ((tmp_311 (bvand tmp_310 tmp_307)))
        (let ((tmp_312 (bvand tmp_224 tmp_233)))
        (let ((tmp_313 (bvxor tmp_312 #b1)))
        (let ((tmp_314 (bvand tmp_313 tmp_311)))
        (let ((tmp_315 (bvxor tmp_314 #b1)))
        (let ((tmp_316 (bvxor tmp_311 #b1)))
        (let ((tmp_317 (bvand tmp_312 tmp_316)))
        (let ((tmp_318 (bvxor tmp_317 #b1)))
        (let ((tmp_319 (bvand tmp_318 tmp_315)))
        (let ((tmp_320 (bvand tmp_319 tmp_257)))
        (let ((tmp_321 (bvxor tmp_320 #b1)))
        (let ((tmp_322 (bvxor tmp_319 #b1)))
        (let ((tmp_323 (bvand tmp_322 tmp_256)))
        (let ((tmp_324 (bvxor tmp_323 #b1)))
        (let ((tmp_325 (bvand tmp_324 tmp_321)))
        (let ((tmp_326 (bvand tmp_243 tmp_319)))
        (let ((tmp_327 (bvand tmp_326 tmp_164)))
        (let ((tmp_328 (bvxor tmp_327 #b1)))
        (let ((tmp_329 (bvand tmp_253 tmp_326)))
        (let ((tmp_330 (bvxor tmp_329 #b1)))
        (let ((tmp_331 (bvand tmp_330 tmp_328)))
        (let ((tmp_332 (bvand tmp_238 tmp_319)))
        (let ((tmp_333 (bvxor tmp_332 #b1)))
        (let ((tmp_334 (bvand tmp_315 tmp_333)))
        (let ((tmp_335 (bvand tmp_334 tmp_331)))
        (let ((tmp_336 (bvand tmp_26 tmp_115)))
        (let ((tmp_337 (bvand tmp_1 tmp_172)))
        (let ((tmp_338 (bvand tmp_337 tmp_336)))
        (let ((tmp_339 (bvxor tmp_338 #b1)))
        (let ((tmp_340 (bvxor tmp_336 #b1)))
        (let ((tmp_341 (bvxor tmp_337 #b1)))
        (let ((tmp_342 (bvand tmp_341 tmp_340)))
        (let ((tmp_343 (bvxor tmp_342 #b1)))
        (let ((tmp_344 (bvand tmp_343 tmp_339)))
        (let ((tmp_345 (bvand tmp_70 tmp_336)))
        (let ((tmp_346 (bvxor tmp_345 #b1)))
        (let ((tmp_347 (bvxor tmp_70 #b1)))
        (let ((tmp_348 (bvand tmp_347 tmp_340)))
        (let ((tmp_349 (bvxor tmp_348 #b1)))
        (let ((tmp_350 (bvand tmp_349 tmp_346)))
        (let ((tmp_351 (bvand tmp_3 tmp_267)))
        (let ((tmp_352 (bvxor tmp_351 #b1)))
        (let ((tmp_353 (bvand tmp_352 tmp_350)))
        (let ((tmp_354 (bvxor tmp_353 #b1)))
        (let ((tmp_355 (bvxor tmp_350 #b1)))
        (let ((tmp_356 (bvand tmp_351 tmp_355)))
        (let ((tmp_357 (bvxor tmp_356 #b1)))
        (let ((tmp_358 (bvand tmp_357 tmp_354)))
        (let ((tmp_359 (bvand tmp_358 tmp_344)))
        (let ((tmp_360 (bvxor tmp_359 #b1)))
        (let ((tmp_361 (bvxor tmp_344 #b1)))
        (let ((tmp_362 (bvxor tmp_358 #b1)))
        (let ((tmp_363 (bvand tmp_362 tmp_361)))
        (let ((tmp_364 (bvxor tmp_363 #b1)))
        (let ((tmp_365 (bvand tmp_364 tmp_360)))
        (let ((tmp_366 (bvand tmp_284 tmp_365)))
        (let ((tmp_367 (bvxor tmp_366 #b1)))
        (let ((tmp_368 (bvxor tmp_365 #b1)))
        (let ((tmp_369 (bvand tmp_285 tmp_368)))
        (let ((tmp_370 (bvxor tmp_369 #b1)))
        (let ((tmp_371 (bvand tmp_370 tmp_367)))
        (let ((tmp_372 (bvand tmp_341 tmp_352)))
        (let ((tmp_373 (bvxor tmp_372 #b1)))
        (let ((tmp_374 (bvand tmp_337 tmp_351)))
        (let ((tmp_375 (bvxor tmp_374 #b1)))
        (let ((tmp_376 (bvand tmp_375 tmp_373)))
        (let ((tmp_377 (bvand tmp_26 tmp_70)))
        (let ((tmp_378 (bvand tmp_377 tmp_376)))
        (let ((tmp_379 (bvxor tmp_378 #b1)))
        (let ((tmp_380 (bvxor tmp_376 #b1)))
        (let ((tmp_381 (bvxor tmp_377 #b1)))
        (let ((tmp_382 (bvand tmp_381 tmp_380)))
        (let ((tmp_383 (bvxor tmp_382 #b1)))
        (let ((tmp_384 (bvand tmp_383 tmp_379)))
        (let ((tmp_385 (bvand tmp_261 tmp_271)))
        (let ((tmp_386 (bvxor tmp_385 #b1)))
        (let ((tmp_387 (bvand tmp_386 tmp_384)))
        (let ((tmp_388 (bvxor tmp_387 #b1)))
        (let ((tmp_389 (bvxor tmp_384 #b1)))
        (let ((tmp_390 (bvand tmp_385 tmp_389)))
        (let ((tmp_391 (bvxor tmp_390 #b1)))
        (let ((tmp_392 (bvand tmp_391 tmp_388)))
        (let ((tmp_393 (bvand tmp_392 tmp_371)))
        (let ((tmp_394 (bvxor tmp_393 #b1)))
        (let ((tmp_395 (bvxor tmp_371 #b1)))
        (let ((tmp_396 (bvxor tmp_392 #b1)))
        (let ((tmp_397 (bvand tmp_396 tmp_395)))
        (let ((tmp_398 (bvxor tmp_397 #b1)))
        (let ((tmp_399 (bvand tmp_398 tmp_394)))
        (let ((tmp_400 (bvand tmp_386 tmp_399)))
        (let ((tmp_401 (bvxor tmp_400 #b1)))
        (let ((tmp_402 (bvxor tmp_399 #b1)))
        (let ((tmp_403 (bvand tmp_385 tmp_402)))
        (let ((tmp_404 (bvxor tmp_403 #b1)))
        (let ((tmp_405 (bvand tmp_404 tmp_401)))
        (let ((tmp_406 (bvand tmp_277 tmp_290)))
        (let ((tmp_407 (bvxor tmp_406 #b1)))
        (let ((tmp_408 (bvand tmp_407 tmp_405)))
        (let ((tmp_409 (bvxor tmp_408 #b1)))
        (let ((tmp_410 (bvxor tmp_405 #b1)))
        (let ((tmp_411 (bvand tmp_406 tmp_410)))
        (let ((tmp_412 (bvxor tmp_411 #b1)))
        (let ((tmp_413 (bvand tmp_412 tmp_409)))
        (let ((tmp_414 (bvand tmp_299 tmp_307)))
        (let ((tmp_415 (bvxor tmp_414 #b1)))
        (let ((tmp_416 (bvand tmp_415 tmp_413)))
        (let ((tmp_417 (bvxor tmp_416 #b1)))
        (let ((tmp_418 (bvxor tmp_413 #b1)))
        (let ((tmp_419 (bvand tmp_414 tmp_418)))
        (let ((tmp_420 (bvxor tmp_419 #b1)))
        (let ((tmp_421 (bvand tmp_420 tmp_417)))
        (let ((tmp_422 (bvxor tmp_421 #b1)))
        (let ((tmp_423 (bvand tmp_422 tmp_335)))
        (let ((tmp_424 (bvxor tmp_423 #b1)))
        (let ((tmp_425 (bvxor tmp_335 #b1)))
        (let ((tmp_426 (bvand tmp_421 tmp_425)))
        (let ((tmp_427 (bvxor tmp_426 #b1)))
        (let ((tmp_428 (bvand tmp_427 tmp_424)))
        (let ((tmp_429 (bvand tmp_417 tmp_427)))
        (let ((tmp_430 (bvxor tmp_429 #b1)))
        (let ((tmp_431 (bvand tmp_339 tmp_360)))
        (let ((tmp_432 (bvxor tmp_431 #b1)))
        (let ((tmp_433 (bvand tmp_70 tmp_115)))
        (let ((tmp_434 (bvand tmp_26 tmp_172)))
        (let ((tmp_435 (bvand tmp_434 tmp_433)))
        (let ((tmp_436 (bvxor tmp_435 #b1)))
        (let ((tmp_437 (bvxor tmp_433 #b1)))
        (let ((tmp_438 (bvxor tmp_434 #b1)))
        (let ((tmp_439 (bvand tmp_438 tmp_437)))
        (let ((tmp_440 (bvxor tmp_439 #b1)))
        (let ((tmp_441 (bvand tmp_440 tmp_436)))
        (let ((tmp_442 (bvand tmp_1 tmp_267)))
        (let ((tmp_443 (bvxor tmp_442 #b1)))
        (let ((tmp_444 (bvand tmp_443 tmp_441)))
        (let ((tmp_445 (bvxor tmp_444 #b1)))
        (let ((tmp_446 (bvxor tmp_441 #b1)))
        (let ((tmp_447 (bvand tmp_442 tmp_446)))
        (let ((tmp_448 (bvxor tmp_447 #b1)))
        (let ((tmp_449 (bvand tmp_448 tmp_445)))
        (let ((tmp_450 (bvand tmp_449 tmp_432)))
        (let ((tmp_451 (bvxor tmp_450 #b1)))
        (let ((tmp_452 (bvxor tmp_449 #b1)))
        (let ((tmp_453 (bvand tmp_452 tmp_431)))
        (let ((tmp_454 (bvxor tmp_453 #b1)))
        (let ((tmp_455 (bvand tmp_454 tmp_451)))
        (let ((tmp_456 (bvand tmp_346 tmp_354)))
        (let ((tmp_457 (bvxor tmp_456 #b1)))
        (let ((tmp_458 (bvand tmp_457 tmp_449)))
        (let ((tmp_459 (bvxor tmp_458 #b1)))
        (let ((tmp_460 (bvand tmp_456 tmp_452)))
        (let ((tmp_461 (bvxor tmp_460 #b1)))
        (let ((tmp_462 (bvand tmp_461 tmp_459)))
        (let ((tmp_463 (bvand tmp_341 tmp_373)))
        (let ((tmp_464 (bvxor tmp_463 #b1)))
        (let ((tmp_465 (bvand tmp_464 tmp_462)))
        (let ((tmp_466 (bvxor tmp_465 #b1)))
        (let ((tmp_467 (bvxor tmp_462 #b1)))
        (let ((tmp_468 (bvand tmp_463 tmp_467)))
        (let ((tmp_469 (bvxor tmp_468 #b1)))
        (let ((tmp_470 (bvand tmp_469 tmp_466)))
        (let ((tmp_471 (bvand tmp_470 tmp_455)))
        (let ((tmp_472 (bvxor tmp_471 #b1)))
        (let ((tmp_473 (bvxor tmp_455 #b1)))
        (let ((tmp_474 (bvxor tmp_470 #b1)))
        (let ((tmp_475 (bvand tmp_474 tmp_473)))
        (let ((tmp_476 (bvxor tmp_475 #b1)))
        (let ((tmp_477 (bvand tmp_476 tmp_472)))
        (let ((tmp_478 (bvand tmp_379 tmp_388)))
        (let ((tmp_479 (bvxor tmp_478 #b1)))
        (let ((tmp_480 (bvand tmp_479 tmp_477)))
        (let ((tmp_481 (bvxor tmp_480 #b1)))
        (let ((tmp_482 (bvxor tmp_477 #b1)))
        (let ((tmp_483 (bvand tmp_478 tmp_482)))
        (let ((tmp_484 (bvxor tmp_483 #b1)))
        (let ((tmp_485 (bvand tmp_484 tmp_481)))
        (let ((tmp_486 (bvand tmp_367 tmp_394)))
        (let ((tmp_487 (bvxor tmp_486 #b1)))
        (let ((tmp_488 (bvand tmp_487 tmp_485)))
        (let ((tmp_489 (bvxor tmp_488 #b1)))
        (let ((tmp_490 (bvxor tmp_485 #b1)))
        (let ((tmp_491 (bvand tmp_486 tmp_490)))
        (let ((tmp_492 (bvxor tmp_491 #b1)))
        (let ((tmp_493 (bvand tmp_492 tmp_489)))
        (let ((tmp_494 (bvand tmp_401 tmp_409)))
        (let ((tmp_495 (bvxor tmp_494 #b1)))
        (let ((tmp_496 (bvand tmp_495 tmp_493)))
        (let ((tmp_497 (bvxor tmp_496 #b1)))
        (let ((tmp_498 (bvxor tmp_493 #b1)))
        (let ((tmp_499 (bvand tmp_494 tmp_498)))
        (let ((tmp_500 (bvxor tmp_499 #b1)))
        (let ((tmp_501 (bvand tmp_500 tmp_497)))
        (let ((tmp_502 (bvand tmp_501 tmp_430)))
        (let ((tmp_503 (bvxor tmp_502 #b1)))
        (let ((tmp_504 (bvxor tmp_501 #b1)))
        (let ((tmp_505 (bvand tmp_504 tmp_429)))
        (let ((tmp_506 (bvxor tmp_505 #b1)))
        (let ((tmp_507 (bvand tmp_506 tmp_503)))
        (let ((tmp_508 (bvand tmp_421 tmp_501)))
        (let ((tmp_509 (bvand tmp_508 tmp_425)))
        (let ((tmp_510 (bvxor tmp_509 #b1)))
        (let ((tmp_511 (bvand tmp_416 tmp_501)))
        (let ((tmp_512 (bvxor tmp_511 #b1)))
        (let ((tmp_513 (bvand tmp_497 tmp_512)))
        (let ((tmp_514 (bvand tmp_513 tmp_510)))
        (let ((tmp_515 (bvxor tmp_514 #b1)))
        (let ((tmp_516 (bvand tmp_70 tmp_172)))
        (let ((tmp_517 (bvand tmp_115 tmp_516)))
        (let ((tmp_518 (bvxor tmp_517 #b1)))
        (let ((tmp_519 (bvxor tmp_516 #b1)))
        (let ((tmp_520 (bvxor tmp_115 #b1)))
        (let ((tmp_521 (bvand tmp_520 tmp_519)))
        (let ((tmp_522 (bvxor tmp_521 #b1)))
        (let ((tmp_523 (bvand tmp_522 tmp_518)))
        (let ((tmp_524 (bvand tmp_26 tmp_267)))
        (let ((tmp_525 (bvxor tmp_524 #b1)))
        (let ((tmp_526 (bvand tmp_525 tmp_523)))
        (let ((tmp_527 (bvxor tmp_526 #b1)))
        (let ((tmp_528 (bvxor tmp_523 #b1)))
        (let ((tmp_529 (bvand tmp_524 tmp_528)))
        (let ((tmp_530 (bvxor tmp_529 #b1)))
        (let ((tmp_531 (bvand tmp_530 tmp_527)))
        (let ((tmp_532 (bvand tmp_436 tmp_445)))
        (let ((tmp_533 (bvxor tmp_532 #b1)))
        (let ((tmp_534 (bvand tmp_533 tmp_531)))
        (let ((tmp_535 (bvxor tmp_534 #b1)))
        (let ((tmp_536 (bvxor tmp_531 #b1)))
        (let ((tmp_537 (bvand tmp_532 tmp_536)))
        (let ((tmp_538 (bvxor tmp_537 #b1)))
        (let ((tmp_539 (bvand tmp_538 tmp_535)))
        (let ((tmp_540 (bvand tmp_516 tmp_525)))
        (let ((tmp_541 (bvxor tmp_540 #b1)))
        (let ((tmp_542 (bvand tmp_519 tmp_524)))
        (let ((tmp_543 (bvxor tmp_542 #b1)))
        (let ((tmp_544 (bvand tmp_543 tmp_541)))
        (let ((tmp_545 (bvand tmp_533 tmp_544)))
        (let ((tmp_546 (bvxor tmp_545 #b1)))
        (let ((tmp_547 (bvxor tmp_544 #b1)))
        (let ((tmp_548 (bvand tmp_532 tmp_547)))
        (let ((tmp_549 (bvxor tmp_548 #b1)))
        (let ((tmp_550 (bvand tmp_549 tmp_546)))
        (let ((tmp_551 (bvand tmp_550 tmp_539)))
        (let ((tmp_552 (bvxor tmp_551 #b1)))
        (let ((tmp_553 (bvxor tmp_539 #b1)))
        (let ((tmp_554 (bvxor tmp_550 #b1)))
        (let ((tmp_555 (bvand tmp_554 tmp_553)))
        (let ((tmp_556 (bvxor tmp_555 #b1)))
        (let ((tmp_557 (bvand tmp_556 tmp_552)))
        (let ((tmp_558 (bvand tmp_459 tmp_466)))
        (let ((tmp_559 (bvxor tmp_558 #b1)))
        (let ((tmp_560 (bvand tmp_559 tmp_557)))
        (let ((tmp_561 (bvxor tmp_560 #b1)))
        (let ((tmp_562 (bvxor tmp_557 #b1)))
        (let ((tmp_563 (bvand tmp_558 tmp_562)))
        (let ((tmp_564 (bvxor tmp_563 #b1)))
        (let ((tmp_565 (bvand tmp_564 tmp_561)))
        (let ((tmp_566 (bvand tmp_451 tmp_472)))
        (let ((tmp_567 (bvxor tmp_566 #b1)))
        (let ((tmp_568 (bvand tmp_567 tmp_565)))
        (let ((tmp_569 (bvxor tmp_568 #b1)))
        (let ((tmp_570 (bvxor tmp_565 #b1)))
        (let ((tmp_571 (bvand tmp_566 tmp_570)))
        (let ((tmp_572 (bvxor tmp_571 #b1)))
        (let ((tmp_573 (bvand tmp_572 tmp_569)))
        (let ((tmp_574 (bvand tmp_481 tmp_489)))
        (let ((tmp_575 (bvxor tmp_574 #b1)))
        (let ((tmp_576 (bvand tmp_575 tmp_573)))
        (let ((tmp_577 (bvxor tmp_576 #b1)))
        (let ((tmp_578 (bvxor tmp_573 #b1)))
        (let ((tmp_579 (bvand tmp_574 tmp_578)))
        (let ((tmp_580 (bvxor tmp_579 #b1)))
        (let ((tmp_581 (bvand tmp_580 tmp_577)))
        (let ((tmp_582 (bvand tmp_581 tmp_515)))
        (let ((tmp_583 (bvxor tmp_582 #b1)))
        (let ((tmp_584 (bvxor tmp_581 #b1)))
        (let ((tmp_585 (bvand tmp_584 tmp_514)))
        (let ((tmp_586 (bvxor tmp_585 #b1)))
        (let ((tmp_587 (bvand tmp_586 tmp_583)))
        (let ((tmp_588 (bvxor tmp_513 #b1)))
        (let ((tmp_589 (bvand tmp_581 tmp_588)))
        (let ((tmp_590 (bvxor tmp_589 #b1)))
        (let ((tmp_591 (bvand tmp_577 tmp_590)))
        (let ((tmp_592 (bvand tmp_581 tmp_508)))
        (let ((tmp_593 (bvand tmp_425 tmp_592)))
        (let ((tmp_594 (bvxor tmp_593 #b1)))
        (let ((tmp_595 (bvand tmp_594 tmp_591)))
        (let ((tmp_596 (bvxor tmp_595 #b1)))
        (let ((tmp_597 (bvand tmp_541 tmp_546)))
        (let ((tmp_598 (bvxor tmp_597 #b1)))
        (let ((tmp_599 (bvand tmp_518 tmp_527)))
        (let ((tmp_600 (bvxor tmp_599 #b1)))
        (let ((tmp_601 (bvand tmp_600 tmp_598)))
        (let ((tmp_602 (bvxor tmp_601 #b1)))
        (let ((tmp_603 (bvand tmp_599 tmp_597)))
        (let ((tmp_604 (bvxor tmp_603 #b1)))
        (let ((tmp_605 (bvand tmp_604 tmp_602)))
        (let ((tmp_606 (bvand tmp_535 tmp_552)))
        (let ((tmp_607 (bvxor tmp_606 #b1)))
        (let ((tmp_608 (bvand tmp_607 tmp_605)))
        (let ((tmp_609 (bvxor tmp_608 #b1)))
        (let ((tmp_610 (bvxor tmp_605 #b1)))
        (let ((tmp_611 (bvand tmp_606 tmp_610)))
        (let ((tmp_612 (bvxor tmp_611 #b1)))
        (let ((tmp_613 (bvand tmp_612 tmp_609)))
        (let ((tmp_614 (bvand tmp_561 tmp_569)))
        (let ((tmp_615 (bvxor tmp_614 #b1)))
        (let ((tmp_616 (bvand tmp_615 tmp_613)))
        (let ((tmp_617 (bvxor tmp_616 #b1)))
        (let ((tmp_618 (bvxor tmp_613 #b1)))
        (let ((tmp_619 (bvand tmp_614 tmp_618)))
        (let ((tmp_620 (bvxor tmp_619 #b1)))
        (let ((tmp_621 (bvand tmp_620 tmp_617)))
        (let ((tmp_622 (bvand tmp_621 tmp_596)))
        (let ((tmp_623 (bvxor tmp_622 #b1)))
        (let ((tmp_624 (bvxor tmp_621 #b1)))
        (let ((tmp_625 (bvand tmp_624 tmp_595)))
        (let ((tmp_626 (bvxor tmp_625 #b1)))
        (let ((tmp_627 (bvand tmp_626 tmp_623)))
        (let ((tmp_628 (bvand tmp_581 tmp_621)))
        (let ((tmp_629 (bvand tmp_508 tmp_628)))
        (let ((tmp_630 (bvand tmp_629 tmp_425)))
        (let ((tmp_631 (bvxor tmp_630 #b1)))
        (let ((tmp_632 (bvand tmp_576 tmp_621)))
        (let ((tmp_633 (bvxor tmp_632 #b1)))
        (let ((tmp_634 (bvand tmp_617 tmp_633)))
        (let ((tmp_635 (bvand tmp_588 tmp_628)))
        (let ((tmp_636 (bvxor tmp_635 #b1)))
        (let ((tmp_637 (bvand tmp_636 tmp_634)))
        (let ((tmp_638 (bvand tmp_637 tmp_631)))
        (let ((tmp_639 (bvxor tmp_638 #b1)))
        (let ((tmp_640 (bvand tmp_115 tmp_267)))
        (let ((tmp_641 (bvxor tmp_640 #b1)))
        (let ((tmp_642 (bvand tmp_172 tmp_641)))
        (let ((tmp_643 (bvxor tmp_642 #b1)))
        (let ((tmp_644 (bvxor tmp_172 #b1)))
        (let ((tmp_645 (bvand tmp_644 tmp_640)))
        (let ((tmp_646 (bvxor tmp_645 #b1)))
        (let ((tmp_647 (bvand tmp_646 tmp_643)))
        (let ((tmp_648 (bvand tmp_641 tmp_647)))
        (let ((tmp_649 (bvxor tmp_648 #b1)))
        (let ((tmp_650 (bvxor tmp_647 #b1)))
        (let ((tmp_651 (bvand tmp_640 tmp_650)))
        (let ((tmp_652 (bvxor tmp_651 #b1)))
        (let ((tmp_653 (bvand tmp_652 tmp_649)))
        (let ((tmp_654 (bvand tmp_115 tmp_172)))
        (let ((tmp_655 (bvand tmp_654 tmp_653)))
        (let ((tmp_656 (bvxor tmp_655 #b1)))
        (let ((tmp_657 (bvxor tmp_653 #b1)))
        (let ((tmp_658 (bvxor tmp_654 #b1)))
        (let ((tmp_659 (bvand tmp_658 tmp_657)))
        (let ((tmp_660 (bvxor tmp_659 #b1)))
        (let ((tmp_661 (bvand tmp_660 tmp_656)))
        (let ((tmp_662 (bvand tmp_70 tmp_267)))
        (let ((tmp_663 (bvxor tmp_662 #b1)))
        (let ((tmp_664 (bvand tmp_663 tmp_661)))
        (let ((tmp_665 (bvxor tmp_664 #b1)))
        (let ((tmp_666 (bvxor tmp_661 #b1)))
        (let ((tmp_667 (bvand tmp_662 tmp_666)))
        (let ((tmp_668 (bvxor tmp_667 #b1)))
        (let ((tmp_669 (bvand tmp_668 tmp_665)))
        (let ((tmp_670 (bvand tmp_602 tmp_609)))
        (let ((tmp_671 (bvxor tmp_670 #b1)))
        (let ((tmp_672 (bvand tmp_671 tmp_669)))
        (let ((tmp_673 (bvxor tmp_672 #b1)))
        (let ((tmp_674 (bvxor tmp_669 #b1)))
        (let ((tmp_675 (bvand tmp_670 tmp_674)))
        (let ((tmp_676 (bvxor tmp_675 #b1)))
        (let ((tmp_677 (bvand tmp_676 tmp_673)))
        (let ((tmp_678 (bvand tmp_677 tmp_639)))
        (let ((tmp_679 (bvxor tmp_678 #b1)))
        (let ((tmp_680 (bvxor tmp_677 #b1)))
        (let ((tmp_681 (bvand tmp_680 tmp_638)))
        (let ((tmp_682 (bvxor tmp_681 #b1)))
        (let ((tmp_683 (bvand tmp_682 tmp_679)))
        (let ((tmp_684 (bvand tmp_677 tmp_629)))
        (let ((tmp_685 (bvand tmp_425 tmp_684)))
        (let ((tmp_686 (bvxor tmp_685 #b1)))
        (let ((tmp_687 (bvand tmp_673 tmp_686)))
        (let ((tmp_688 (bvxor tmp_637 #b1)))
        (let ((tmp_689 (bvand tmp_677 tmp_688)))
        (let ((tmp_690 (bvxor tmp_689 #b1)))
        (let ((tmp_691 (bvand tmp_690 tmp_687)))
        (let ((tmp_692 (bvxor tmp_691 #b1)))
        (let ((tmp_693 (bvand tmp_656 tmp_665)))
        (let ((tmp_694 (bvxor tmp_693 #b1)))
        (let ((tmp_695 (bvand tmp_643 tmp_649)))
        (let ((tmp_696 (bvxor tmp_695 #b1)))
        (let ((tmp_697 (bvand tmp_696 tmp_694)))
        (let ((tmp_698 (bvxor tmp_697 #b1)))
        (let ((tmp_699 (bvand tmp_695 tmp_693)))
        (let ((tmp_700 (bvxor tmp_699 #b1)))
        (let ((tmp_701 (bvand tmp_700 tmp_698)))
        (let ((tmp_702 (bvand tmp_701 tmp_692)))
        (let ((tmp_703 (bvxor tmp_702 #b1)))
        (let ((tmp_704 (bvxor tmp_701 #b1)))
        (let ((tmp_705 (bvand tmp_704 tmp_691)))
        (let ((tmp_706 (bvxor tmp_705 #b1)))
        (let ((tmp_707 (bvand tmp_706 tmp_703)))
        (let ((tmp_708 (bvand tmp_677 tmp_701)))
        (let ((tmp_709 (bvand tmp_708 tmp_629)))
        (let ((tmp_710 (bvand tmp_425 tmp_709)))
        (let ((tmp_711 (bvxor tmp_710 #b1)))
        (let ((tmp_712 (bvand tmp_672 tmp_701)))
        (let ((tmp_713 (bvxor tmp_712 #b1)))
        (let ((tmp_714 (bvand tmp_698 tmp_713)))
        (let ((tmp_715 (bvand tmp_714 tmp_711)))
        (let ((tmp_716 (bvand tmp_708 tmp_688)))
        (let ((tmp_717 (bvxor tmp_716 #b1)))
        (let ((tmp_718 (bvand tmp_717 tmp_715)))
        (let ((tmp_719 (bvxor tmp_718 #b1)))
        (let ((tmp_720 (bvand tmp_172 tmp_267)))
        (let ((tmp_721 (bvxor tmp_720 #b1)))
        (let ((tmp_722 (bvand tmp_267 tmp_721)))
        (let ((tmp_723 (bvxor tmp_722 #b1)))
        (let ((tmp_724 (bvxor tmp_267 #b1)))
        (let ((tmp_725 (bvand tmp_724 tmp_720)))
        (let ((tmp_726 (bvxor tmp_725 #b1)))
        (let ((tmp_727 (bvand tmp_726 tmp_723)))
        (let ((tmp_728 (bvand tmp_727 tmp_719)))
        (let ((tmp_729 (bvxor tmp_728 #b1)))
        (let ((tmp_730 (bvxor tmp_727 #b1)))
        (let ((tmp_731 (bvand tmp_730 tmp_718)))
        (let ((tmp_732 (bvxor tmp_731 #b1)))
        (let ((tmp_733 (bvand tmp_732 tmp_729)))
        (let ((tmp_734 (bvxor tmp_714 #b1)))
        (let ((tmp_735 (bvand tmp_727 tmp_734)))
        (let ((tmp_736 (bvxor tmp_735 #b1)))
        (let ((tmp_737 (bvand tmp_723 tmp_736)))
        (let ((tmp_738 (bvand tmp_727 tmp_708)))
        (let ((tmp_739 (bvand tmp_629 tmp_738)))
        (let ((tmp_740 (bvand tmp_425 tmp_739)))
        (let ((tmp_741 (bvxor tmp_740 #b1)))
        (let ((tmp_742 (bvand tmp_741 tmp_737)))
        (let ((tmp_743 (bvand tmp_688 tmp_738)))
        (let ((tmp_744 (bvxor tmp_743 #b1)))
        (let ((tmp_745 (bvand tmp_744 tmp_742)))
        (let ((tmp_746 (concat tmp_745 tmp_733)))
        (let ((tmp_747 (concat tmp_746 tmp_707)))
        (let ((tmp_748 (concat tmp_747 tmp_683)))
        (let ((tmp_749 (concat tmp_748 tmp_627)))
        (let ((tmp_750 (concat tmp_749 tmp_587)))
        (let ((tmp_751 (concat tmp_750 tmp_507)))
        (let ((tmp_752 (concat tmp_751 tmp_428)))
        (let ((tmp_753 (concat tmp_752 tmp_325)))
        (let ((tmp_754 (concat tmp_753 tmp_249)))
        (let ((tmp_755 (concat tmp_754 tmp_163)))
        (let ((tmp_756 (concat tmp_755 tmp_111)))
        (let ((tmp_757 (concat tmp_756 tmp_60)))
        (let ((tmp_758 (concat tmp_757 tmp_24)))
        (let ((tmp_759 (concat tmp_758 #b0)))
        (let ((tmp_760 (concat tmp_759 tmp_0)))
        (let ((tmp_761 ((_ extract 7 7) tmp)))
        (let ((tmp_762 ((_ repeat 8) tmp_761)))
        (let ((tmp_763 (concat tmp_762 tmp)))
        (let ((tmp_764 (bvmul tmp_763 tmp_763)))
        (let ((tmp_765 (distinct tmp_764 tmp_760)))
        tmp_765)))))))))))))))))))))))))))))))))))))))))))))))))))))))))))))))))))))))))))))))))))))))))))))))))))))))))))))))))))))))))))))))))))))))))))))))))))))))))))))))))))))))))))))))))))))))))))))))))))))))))))))))))))))))))))))))))))))))))))))))))))))))))))))))))))))))))))))))))))))))))))))))))))))))))))))))))))))))))))))))))))))))))))))))))))))))))))))))))))))))))))))))))))))))))))))))))))))))))))))))))))))))))))))))))))))))))))))))))))))))))))))))))))))))))))))))))))))))))))))))))))))))))))))))))))))))))))))))))))))))))))))))))))))))))))))))))))))))))))))))))))))))))))))))))))))))))))))))))))))))))))))))))))))))))))))))))))))))))))))))))))))))))))))))))))))))))))))))))))))))))))))))))))))))))))))))))))))))))))))))))))))))))))))))))))))))))))))))))))))))))))))))
(check-sat)
